&CONTROL
  prefix = 'NaCl',
  isgw = 1, 
  groundstate_dir = './',
  groundstate_type = 'kssolv',
  storage_dir = '../'
END &CONTROL

% &SYSTEM
%   number_bands_in_summation = 20,
% END &SYSTEM

