This file is generated by VASPKIT code
 1.000000
    5.4687279999999996    0.0000000000000000    0.0000000000000000
    0.0000000000000000    5.4687279999999996    0.0000000000000000
    0.0000000000000000    0.0000000000000000    5.4687279999999996
   Si
   8
Direct
   0.250000 0.750000 0.250000
   0.000000 0.000000 0.500000
   0.250000 0.250000 0.750000
   0.000000 0.500000 0.000000
   0.750000 0.750000 0.750000
   0.500000 0.000000 0.000000
   0.750000 0.250000 0.250000
   0.500000 0.500000 0.500000
